
Gurobi 13.0.1 (linux64) logging started Thu Mar 19 15:46:11 2026

Set parameter LogFile to value "logs/100B_3F_robust_gamma_0d25_theta_0d3_2026-03-19_15h45m44s.log"
Gurobi Optimizer version 13.0.1 build v13.0.1rc0 (linux64 - "Linux Mint 22")

CPU model: 12th Gen Intel(R) Core(TM) i7-12700, instruction set [SSE2|AVX|AVX2]
Thread count: 20 physical cores, 20 logical processors, using up to 20 threads

Non-default parameters:
TimeLimit  3600
SoftMemLimit  13.2

Optimize a model with 72721 rows, 1531121 columns and 4650214 nonzeros (Max)
Model fingerprint: 0xaf0794bd
Model has 1485111 linear objective coefficients
Variable types: 16121 continuous, 1515000 integer (1515000 binary)
Coefficient statistics:
  Matrix range     [8e-05, 4e+04]
  Objective range  [1e+00, 3e+03]
  Bounds range     [1e+00, 1e+05]
  RHS range        [2e-02, 1e+05]

Presolve removed 41845 rows and 1072391 columns (presolve time = 5s)...
Presolve removed 41845 rows and 1072391 columns (presolve time = 10s)...
Presolve removed 41845 rows and 1072391 columns (presolve time = 15s)...
Presolve removed 41845 rows and 1072391 columns (presolve time = 20s)...
Presolve removed 41845 rows and 1072391 columns (presolve time = 25s)...
Presolve removed 41845 rows and 1072391 columns (presolve time = 30s)...
Presolve removed 41845 rows and 1072391 columns (presolve time = 35s)...
Presolve removed 41845 rows and 1072391 columns (presolve time = 40s)...
Presolve removed 41845 rows and 1072391 columns (presolve time = 45s)...
Presolve removed 41845 rows and 1072391 columns (presolve time = 50s)...
Presolve removed 41845 rows and 1435895 columns (presolve time = 58s)...
Presolve removed 59979 rows and 1435875 columns
Presolve time: 57.68s
Presolved: 12742 rows, 95246 columns, 332144 nonzeros
Variable types: 8195 continuous, 87051 integer (87051 binary)
Found heuristic solution: objective -4.30802e+08
Performing another presolve...
Presolve removed 4701 rows and 4581 columns
Presolve time: 3.30s
Deterministic concurrent LP optimizer: primal and dual simplex
Showing primal log only...


Root simplex log...

Iteration    Objective       Primal Inf.    Dual Inf.      Time
       0   -8.8875327e+03   5.726317e+02   1.259432e+09     62s
    9166   -4.9500356e+08   0.000000e+00   1.758358e+07     62s
   21918   -1.0767206e+08   0.000000e+00   3.394574e+12     65s
   30907   -9.4356400e+07   0.000000e+00   2.179287e+12     70s
Concurrent spin time: 2.92s (can be avoided by choosing Method=3)

Solved with dual simplex

Root simplex log...

Iteration    Objective       Primal Inf.    Dual Inf.      Time
   17985   -1.7075165e+07   0.000000e+00   0.000000e+00     72s

Root relaxation: objective -1.707516e+07, 17985 iterations, 10.54 seconds (19.79 work units)
Total elapsed time = 72.23s (DegenMoves)

    Nodes    |    Current Node    |     Objective Bounds      |     Work
 Expl Unexpl |  Obj  Depth IntInf | Incumbent    BestBd   Gap | It/Node Time

     0     0 -1.708e+07    0 1361 -4.308e+08 -1.708e+07  96.0%     -   72s
H    0     0                    -3.17235e+08 -1.708e+07  94.6%     -   72s
H    0     0                    -3.10073e+08 -1.708e+07  94.5%     -   72s
H    0     0                    -3.07709e+08 -1.708e+07  94.5%     -   72s
H    0     0                    -3.07188e+08 -1.708e+07  94.4%     -   72s
H    0     0                    -3.04807e+08 -1.708e+07  94.4%     -   72s
H    0     0                    -3.00740e+08 -1.708e+07  94.3%     -   72s
H    0     0                    -2.91817e+08 -1.708e+07  94.1%     -   73s
H    0     0                    -2.84055e+08 -1.708e+07  94.0%     -   73s
H    0     0                    -2.50316e+08 -1.708e+07  93.2%     -   73s
H    0     0                    -2.48023e+08 -1.708e+07  93.1%     -   75s
H    0     0                    -2.46340e+08 -1.708e+07  93.1%     -   76s
H    0     0                    -2.43204e+08 -1.708e+07  93.0%     -   76s
H    0     0                    -2.42982e+08 -1.708e+07  93.0%     -   77s
H    0     0                    -2.42051e+08 -1.708e+07  92.9%     -   77s
H    0     0                    -2.41944e+08 -1.708e+07  92.9%     -   77s
H    0     0                    -2.37542e+08 -1.708e+07  92.8%     -   78s
H    0     0                    -2.33649e+08 -1.708e+07  92.7%     -   78s
H    0     0                    -2.29501e+08 -1.708e+07  92.6%     -   80s
H    0     0                    -2.26913e+08 -1.708e+07  92.5%     -   81s
H    0     0                    -2.22011e+08 -1.708e+07  92.3%     -   82s
H    0     0                    -2.19433e+08 -1.708e+07  92.2%     -   82s
H    0     0                    -2.18223e+08 -1.708e+07  92.2%     -   83s
H    0     0                    -2.17943e+08 -1.708e+07  92.2%     -   84s
H    0     0                    -2.17943e+08 -1.708e+07  92.2%     -   84s
H    0     0                    -2.17925e+08 -1.708e+07  92.2%     -   84s
H    0     0                    -2.17925e+08 -1.708e+07  92.2%     -   85s
H    0     0                    -2.17912e+08 -1.708e+07  92.2%     -   85s
H    0     0                    -2.17905e+08 -1.708e+07  92.2%     -   86s
H    0     0                    -2.17847e+08 -1.708e+07  92.2%     -   88s
H    0     0                    -2.17829e+08 -1.708e+07  92.2%     -   88s
H    0     0                    -2.17747e+08 -4.336e+07  80.1%     -  130s
     0     0 -4.336e+07    0  782 -2.177e+08 -4.336e+07  80.1%     -  135s
     0     0 -7.396e+07    0  783 -2.177e+08 -7.396e+07  66.0%     -  164s
H    0     0                    -2.17746e+08 -7.912e+07  63.7%     -  175s
     0     0 -1.117e+08    0  666 -2.177e+08 -1.117e+08  48.7%     -  176s
     0     0 -1.123e+08    0  579 -2.177e+08 -1.123e+08  48.4%     -  183s
     0     0 -1.139e+08    0  612 -2.177e+08 -1.139e+08  47.7%     -  184s
     0     0 -1.139e+08    0  557 -2.177e+08 -1.139e+08  47.7%     -  185s
H    0     0                    -2.17746e+08 -1.335e+08  38.7%     -  187s
     0     0 -1.335e+08    0  749 -2.177e+08 -1.335e+08  38.7%     -  188s
     0     0 -1.342e+08    0  607 -2.177e+08 -1.342e+08  38.4%     -  191s
     0     0 -1.342e+08    0  645 -2.177e+08 -1.342e+08  38.3%     -  191s
     0     0 -1.567e+08    0  684 -2.177e+08 -1.567e+08  28.0%     -  195s
     0     0 -1.575e+08    0  660 -2.177e+08 -1.575e+08  27.7%     -  197s
     0     0 -1.575e+08    0  655 -2.177e+08 -1.575e+08  27.7%     -  197s
     0     0 -1.736e+08    0  712 -2.177e+08 -1.736e+08  20.3%     -  200s
     0     0 -1.738e+08    0  678 -2.177e+08 -1.738e+08  20.2%     -  202s
     0     0 -1.738e+08    0  687 -2.177e+08 -1.738e+08  20.2%     -  202s
     0     0 -1.844e+08    0  795 -2.177e+08 -1.844e+08  15.3%     -  206s
     0     0 -1.848e+08    0  823 -2.177e+08 -1.848e+08  15.1%     -  207s
     0     0 -1.848e+08    0  828 -2.177e+08 -1.848e+08  15.1%     -  208s
     0     0 -1.943e+08    0  749 -2.177e+08 -1.943e+08  10.8%     -  212s
     0     0 -1.946e+08    0  729 -2.177e+08 -1.946e+08  10.6%     -  214s
     0     0 -1.946e+08    0  731 -2.177e+08 -1.946e+08  10.6%     -  214s
     0     0 -2.005e+08    0  817 -2.177e+08 -2.005e+08  7.93%     -  220s
     0     0 -2.006e+08    0  811 -2.177e+08 -2.006e+08  7.86%     -  222s
     0     0 -2.006e+08    0  853 -2.177e+08 -2.006e+08  7.86%     -  223s
     0     0 -2.060e+08    0  889 -2.177e+08 -2.060e+08  5.40%     -  230s
     0     0 -2.061e+08    0  889 -2.177e+08 -2.061e+08  5.34%     -  236s
     0     0 -2.062e+08    0  896 -2.177e+08 -2.062e+08  5.32%     -  238s
     0     0 -2.089e+08    0  887 -2.177e+08 -2.089e+08  4.04%     -  244s
     0     0 -2.093e+08    0  919 -2.177e+08 -2.093e+08  3.89%     -  246s
     0     0 -2.093e+08    0  936 -2.177e+08 -2.093e+08  3.89%     -  247s
     0     0 -2.119e+08    0  870 -2.177e+08 -2.119e+08  2.69%     -  253s
     0     0 -2.120e+08    0  908 -2.177e+08 -2.120e+08  2.62%     -  256s
     0     0 -2.120e+08    0  889 -2.177e+08 -2.120e+08  2.62%     -  256s
     0     0 -2.134e+08    0 1015 -2.177e+08 -2.134e+08  1.98%     -  262s
H    0     0                    -2.17746e+08 -2.136e+08  1.92%     -  264s
     0     0 -2.136e+08    0  995 -2.177e+08 -2.136e+08  1.90%     -  268s
     0     0 -2.137e+08    0 1008 -2.177e+08 -2.137e+08  1.87%     -  271s
     0     0 -2.145e+08    0 1077 -2.177e+08 -2.145e+08  1.51%     -  278s
     0     0 -2.147e+08    0 1163 -2.177e+08 -2.147e+08  1.39%     -  293s
     0     0 -2.147e+08    0 1132 -2.177e+08 -2.147e+08  1.38%     -  296s
     0     0 -2.149e+08    0 1147 -2.177e+08 -2.149e+08  1.30%     -  303s
H    0     0                    -2.17745e+08 -2.149e+08  1.30%     -  309s
H    0     0                    -2.17707e+08 -2.149e+08  1.28%     -  329s
H    0     0                    -2.17706e+08 -2.149e+08  1.28%     -  350s
     0     0 -2.150e+08    0 1128 -2.177e+08 -2.150e+08  1.25%     -  368s
     0     0 -2.152e+08    0 1151 -2.177e+08 -2.152e+08  1.15%     -  377s
     0     0 -2.152e+08    0 1149 -2.177e+08 -2.152e+08  1.14%     -  380s
     0     0 -2.152e+08    0 1149 -2.177e+08 -2.152e+08  1.14%     -  380s
     0     0 -2.152e+08    0 1137 -2.177e+08 -2.152e+08  1.14%     -  380s
H    0     0                    -2.17706e+08 -2.152e+08  1.14%     -  441s
H    0     0                    -2.17706e+08 -2.152e+08  1.14%     -  442s
     0     2 -2.152e+08    0 1137 -2.177e+08 -2.152e+08  1.14%     -  449s
     1     4 -2.152e+08    1 1119 -2.177e+08 -2.152e+08  1.14%   217  452s
     3     8 -2.152e+08    2 1169 -2.177e+08 -2.152e+08  1.14%  3651  459s
     7    13 -2.152e+08    3 1162 -2.177e+08 -2.152e+08  1.13%  4896  464s
    15    26 -2.152e+08    4 1167 -2.177e+08 -2.152e+08  1.13%  4127  471s
    28    38 -2.153e+08    5 1184 -2.177e+08 -2.153e+08  1.13%  3770  477s
    48    90 -2.153e+08    6 1170 -2.177e+08 -2.153e+08  1.13%  2993  493s
   100   120 -2.153e+08    7 1173 -2.177e+08 -2.153e+08  1.12%  2250  503s
   140   140 -2.153e+08    8 1180 -2.177e+08 -2.153e+08  1.12%  2135  512s
   176   169 -2.154e+08    9 1157 -2.177e+08 -2.153e+08  1.12%  2102  521s
   221   200 -2.154e+08   10 1154 -2.177e+08 -2.153e+08  1.12%  1967  529s
   270   238 -2.156e+08   11 1161 -2.177e+08 -2.153e+08  1.12%  1830  537s
   321   280 -2.166e+08   11 1096 -2.177e+08 -2.153e+08  1.12%  1703  546s
   369   301 -2.156e+08   12 1169 -2.177e+08 -2.153e+08  1.12%  1613  554s
   407   320 -2.156e+08   13 1134 -2.177e+08 -2.153e+08  1.12%  1608  564s
   440   353 -2.157e+08   15 1118 -2.177e+08 -2.153e+08  1.12%  1639  570s
   479   392 -2.157e+08   16 1088 -2.177e+08 -2.153e+08  1.12%  1598  577s
   524   434 -2.157e+08   17 1136 -2.177e+08 -2.153e+08  1.12%  1548  584s
   569   489 -2.157e+08   18 1064 -2.177e+08 -2.153e+08  1.12%  1513  590s
   630   507 -2.157e+08   19 1063 -2.177e+08 -2.153e+08  1.12%  1442  603s
   650   528 -2.157e+08   20 1119 -2.177e+08 -2.153e+08  1.12%  1434  614s
H  673   528                    -2.17706e+08 -2.153e+08  1.12%  1415  614s
   674   556 -2.158e+08   21 1053 -2.177e+08 -2.153e+08  1.12%  1418  622s
   726   606 -2.159e+08   21  984 -2.177e+08 -2.153e+08  1.12%  1417  631s
   781   664 -2.158e+08   22 1046 -2.177e+08 -2.153e+08  1.12%  1404  639s
   856   710 -2.160e+08   23  991 -2.177e+08 -2.153e+08  1.12%  1359  649s
   928   759 -2.159e+08   24 1073 -2.177e+08 -2.153e+08  1.12%  1344  660s
  1006   817 -2.160e+08   26 1072 -2.177e+08 -2.155e+08  1.03%  1330  668s
  1098   888 -2.160e+08   28 1081 -2.177e+08 -2.155e+08  1.03%  1293  677s
  1203   970 -2.160e+08   30 1062 -2.177e+08 -2.155e+08  1.03%  1250  687s
  1307  1052 -2.160e+08   31 1060 -2.177e+08 -2.155e+08  1.02%  1216  700s
  1407  1144 -2.160e+08   33 1065 -2.177e+08 -2.155e+08  0.99%  1207  710s
  1524  1253 -2.160e+08   37 1060 -2.177e+08 -2.155e+08  0.99%  1171  720s
  1672  1333 -2.161e+08   40 1038 -2.177e+08 -2.156e+08  0.97%  1123  733s
  1792  1404 -2.161e+08   41 1009 -2.177e+08 -2.156e+08  0.97%  1118  744s
H 1893  1379                    -2.17686e+08 -2.156e+08  0.96%  1105  744s
  1902  1474 -2.161e+08   42 1006 -2.177e+08 -2.156e+08  0.96%  1102  757s
  2038  1585 -2.161e+08   45  979 -2.177e+08 -2.156e+08  0.96%  1086  769s
  2182  1722 -2.161e+08   47  959 -2.177e+08 -2.156e+08  0.96%  1061  782s
  2350  1817 -2.162e+08   52  955 -2.177e+08 -2.156e+08  0.95%  1036  796s
  2501  1969 -2.162e+08   55  924 -2.177e+08 -2.156e+08  0.95%  1024  808s
  2728  2062 -2.163e+08   57  987 -2.177e+08 -2.156e+08  0.95%   983  824s
  2879  2063 -2.175e+08   38 3673 -2.177e+08 -2.156e+08  0.95%   983  926s
  2881  2064 -2.166e+08    7 1053 -2.177e+08 -2.156e+08  0.95%   983  962s
  2882  2065 -2.177e+08   94  575 -2.177e+08 -2.156e+08  0.95%   982  996s
H 2882  1961                    -2.17686e+08 -2.156e+08  0.95%   982 1004s
  2883  1962 -2.167e+08   33  495 -2.177e+08 -2.156e+08  0.95%   982 1005s
  2884  1962 -2.175e+08   62  699 -2.177e+08 -2.156e+08  0.95%   982 1015s
  2885  1963 -2.170e+08   49  846 -2.177e+08 -2.156e+08  0.95%   981 1028s
  2886  1964 -2.161e+08   31 1030 -2.177e+08 -2.156e+08  0.95%   981 1049s
  2887  1964 -2.164e+08   21 1061 -2.177e+08 -2.156e+08  0.95%   981 1058s
  2888  1965 -2.166e+08   16 1117 -2.177e+08 -2.156e+08  0.95%   980 1064s
  2889  1966 -2.165e+08   11 1143 -2.177e+08 -2.156e+08  0.95%   980 1070s
  2893  1968 -2.170e+08   22 1166 -2.177e+08 -2.156e+08  0.95%   979 1077s
  2894  1969 -2.177e+08   53 1214 -2.177e+08 -2.159e+08  0.83%   978 1091s
  2895  1970 -2.173e+08   97 1219 -2.177e+08 -2.160e+08  0.80%   978 1101s
  2896  1970 -2.164e+08   34 1222 -2.177e+08 -2.160e+08  0.79%   978 1107s
  2898  1972 -2.177e+08   38 1264 -2.177e+08 -2.160e+08  0.79%   977 1110s
H 2900  1874                    -2.17686e+08 -2.161e+08  0.72%   976 1141s
H 2900  1780                    -2.17686e+08 -2.161e+08  0.72%   976 1157s
  2901  1781 -2.161e+08   33 1173 -2.177e+08 -2.161e+08  0.72%   976 1174s
  2902  1781 -2.177e+08   43 1137 -2.177e+08 -2.161e+08  0.71%   976 1179s
  2903  1782 -2.162e+08   15 1153 -2.177e+08 -2.162e+08  0.70%   975 1182s
  2906  1784 -2.164e+08   16 1178 -2.177e+08 -2.162e+08  0.70%   974 1185s
  2910  1787 -2.172e+08   34  870 -2.177e+08 -2.163e+08  0.65%   973 1203s
  2911  1787 -2.171e+08   43  870 -2.177e+08 -2.163e+08  0.64%   973 1206s
  2917  1791 -2.171e+08   36  958 -2.177e+08 -2.163e+08  0.64%   971 1210s
  2921  1794 -2.164e+08   32  958 -2.177e+08 -2.163e+08  0.62%   969 1217s
  2925  1797 -2.165e+08   30  753 -2.177e+08 -2.163e+08  0.62%   968 1220s
  2928  1799 -2.174e+08   82  673 -2.177e+08 -2.164e+08  0.61%   967 1225s
  2931  1801 -2.164e+08   32  689 -2.177e+08 -2.164e+08  0.61%   966 1230s
  2935  1803 -2.171e+08   26  675 -2.177e+08 -2.164e+08  0.61%   965 1237s
  2937  1805 -2.173e+08    6  709 -2.177e+08 -2.164e+08  0.61%   964 1240s
  2942  1808 -2.171e+08   85  723 -2.177e+08 -2.164e+08  0.61%   962 1251s
  2945  1810 -2.169e+08   24  710 -2.177e+08 -2.164e+08  0.61%   961 1255s
  2948  1812 -2.172e+08   85  729 -2.177e+08 -2.164e+08  0.61%   960 1262s
  2950  1813 -2.164e+08   26  723 -2.177e+08 -2.164e+08  0.61%   960 1265s
  2958  1819 -2.172e+08   92  707 -2.177e+08 -2.164e+08  0.61%   957 1271s
  2961  1821 -2.175e+08  101  714 -2.177e+08 -2.164e+08  0.60%   956 1275s
  2966  1824 -2.165e+08   54  722 -2.177e+08 -2.164e+08  0.60%   955 1280s
  2971  1827 -2.168e+08   21  702 -2.177e+08 -2.164e+08  0.60%   953 1285s
  2975  1830 -2.174e+08  108  727 -2.177e+08 -2.164e+08  0.60%   952 1290s
  2981  1834 -2.166e+08    7  725 -2.177e+08 -2.164e+08  0.60%   950 1296s
  2985  1837 -2.170e+08   49  692 -2.177e+08 -2.164e+08  0.60%   949 1300s
  2989  1839 -2.165e+08   11  712 -2.177e+08 -2.164e+08  0.60%   947 1305s
  2992  1841 -2.170e+08   11  696 -2.177e+08 -2.164e+08  0.60%   946 1310s
  2995  1843 -2.173e+08   97  659 -2.177e+08 -2.164e+08  0.60%   945 1319s
  2996  1844 -2.164e+08   34  698 -2.177e+08 -2.164e+08  0.60%   945 1320s
  2999  1846 -2.176e+08   74  696 -2.177e+08 -2.164e+08  0.60%   944 1327s
  3001  1847 -2.164e+08   33  703 -2.177e+08 -2.164e+08  0.60%   944 1331s
  3002  1848 -2.177e+08   43  703 -2.177e+08 -2.164e+08  0.60%   943 1344s
H 3002  1754                    -2.17685e+08 -2.164e+08  0.59%   943 1364s
H 3002  1664                    -2.17685e+08 -2.164e+08  0.59%   943 1368s
  3003  1665 -2.164e+08   15  703 -2.177e+08 -2.164e+08  0.59%   943 1417s
  3004  1668 -2.164e+08   13  699 -2.177e+08 -2.164e+08  0.59%  1037 1421s
  3006  1672 -2.164e+08   14  680 -2.177e+08 -2.164e+08  0.59%  1038 1426s
  3018  1691 -2.164e+08   16  683 -2.177e+08 -2.164e+08  0.59%  1037 1437s
H 3022  1604                    -2.17685e+08 -2.164e+08  0.59%  1036 1437s
H 3028  1520                    -2.17685e+08 -2.164e+08  0.59%  1039 1437s
  3034  1538 -2.164e+08   17  686 -2.177e+08 -2.164e+08  0.59%  1043 1448s
  3054  1573 -2.164e+08   18  677 -2.177e+08 -2.164e+08  0.58%  1046 1457s
  3102  1592 -2.164e+08   20  656 -2.177e+08 -2.164e+08  0.58%  1040 1463s
  3150  1605 -2.164e+08   21  643 -2.177e+08 -2.164e+08  0.58%  1032 1470s
  3186  1626 -2.165e+08   22  587 -2.177e+08 -2.164e+08  0.58%  1030 1478s
  3226  1637 -2.168e+08   22  526 -2.177e+08 -2.164e+08  0.58%  1026 1485s
  3270  1646 -2.165e+08   23  586 -2.177e+08 -2.164e+08  0.58%  1020 1498s
  3312  1658 -2.172e+08   23  549 -2.177e+08 -2.164e+08  0.58%  1016 1509s
  3362  1671 -2.168e+08   24  330 -2.177e+08 -2.164e+08  0.58%  1010 1516s
  3420  1675 -2.168e+08   25  335 -2.177e+08 -2.164e+08  0.58%  1001 1523s
  3475  1675 -2.168e+08   26  322 -2.177e+08 -2.164e+08  0.58%   994 1530s
  3528  1681 -2.169e+08   27  396 -2.177e+08 -2.164e+08  0.58%   987 1536s
  3586  1686 -2.172e+08   27  324 -2.177e+08 -2.164e+08  0.58%   980 1545s
  3643  1687 -2.169e+08   28  477 -2.177e+08 -2.164e+08  0.58%   984 1557s
  3686  1700 -2.169e+08   28  397 -2.177e+08 -2.164e+08  0.58%   981 1564s
  3736  1715 -2.169e+08   30  399 -2.177e+08 -2.164e+08  0.58%   977 1571s
  3792  1736 -2.169e+08   31  411 -2.177e+08 -2.164e+08  0.58%   971 1578s
  3860  1749 -2.169e+08   32  420 -2.177e+08 -2.164e+08  0.58%   963 1585s
  3929  1767 -2.169e+08   33  403 -2.177e+08 -2.164e+08  0.58%   955 1593s
  4001  1781 -2.169e+08   34  403 -2.177e+08 -2.164e+08  0.58%   946 1599s
  4101  1761 -2.175e+08   35  195 -2.177e+08 -2.164e+08  0.58%   930 1608s
  4121  1769 -2.169e+08   36  461 -2.177e+08 -2.164e+08  0.58%   927 1622s
  4142  1772 -2.175e+08   36  401 -2.177e+08 -2.164e+08  0.58%   931 1628s
  4167  1780 -2.169e+08   37  469 -2.177e+08 -2.164e+08  0.58%   929 1634s
  4196  1787 -2.169e+08   37  396 -2.177e+08 -2.164e+08  0.58%   925 1642s
  4237  1784 -2.171e+08   38  514 -2.177e+08 -2.164e+08  0.58%   919 1648s
  4276  1789 -2.170e+08   38  397 -2.177e+08 -2.164e+08  0.58%   914 1654s
  4314  1803 -2.170e+08   39  452 -2.177e+08 -2.164e+08  0.58%   911 1660s
  4363  1805 -2.173e+08   39  320 -2.177e+08 -2.164e+08  0.58%   905 1668s
  4409  1826 -2.170e+08   40  452 -2.177e+08 -2.164e+08  0.58%   900 1681s
  4485  1845     cutoff   40      -2.177e+08 -2.164e+08  0.58%   892 1695s
  4560  1882 -2.170e+08   42  456 -2.177e+08 -2.164e+08  0.58%   883 1709s
  4663  1918 -2.176e+08   42  196 -2.177e+08 -2.164e+08  0.58%   870 1718s
  4790  1936 -2.170e+08   43  367 -2.177e+08 -2.164e+08  0.58%   852 1726s
  4951  1936 -2.174e+08   43  356 -2.177e+08 -2.164e+08  0.58%   831 1741s
  5128  1950 -2.170e+08   44  373 -2.177e+08 -2.164e+08  0.58%   808 1759s
  5296  1941 -2.171e+08   44  231 -2.177e+08 -2.164e+08  0.57%   791 1777s
  5500  1931 -2.170e+08   45  366 -2.177e+08 -2.164e+08  0.57%   770 1790s
  5739  1955 -2.173e+08   45  569 -2.177e+08 -2.164e+08  0.57%   749 1807s
  5956  2004 -2.173e+08   46  341 -2.177e+08 -2.164e+08  0.57%   737 1821s
  6172  2033 -2.173e+08   46  310 -2.177e+08 -2.165e+08  0.56%   724 1836s
  6435  2036 -2.173e+08   50  331 -2.177e+08 -2.165e+08  0.56%   707 1852s
  6732  2074 -2.174e+08   53  230 -2.177e+08 -2.165e+08  0.56%   690 1867s
  7001  2169 -2.170e+08   25  187 -2.177e+08 -2.165e+08  0.56%   682 1888s
  7371  2161 -2.176e+08   43  292 -2.177e+08 -2.165e+08  0.53%   666 1912s
  7726  2218 -2.169e+08   25  341 -2.177e+08 -2.165e+08  0.53%   651 1938s
  8059  2335 -2.174e+08   36  228 -2.177e+08 -2.165e+08  0.53%   642 1959s
  8448  2460 -2.170e+08   30  295 -2.177e+08 -2.166e+08  0.51%   632 1984s
  8901  2613 -2.171e+08   37  231 -2.177e+08 -2.167e+08  0.47%   619 2012s
  9346  2776 -2.171e+08   35  544 -2.177e+08 -2.167e+08  0.46%   610 2042s
  9813  2969 -2.170e+08   30  318 -2.177e+08 -2.167e+08  0.45%   604 2078s
 10249  3200 -2.177e+08   41  210 -2.177e+08 -2.168e+08  0.42%   599 2104s
 10789  3369 -2.171e+08   26  227 -2.177e+08 -2.168e+08  0.41%   593 2136s
 11188  3601 -2.172e+08   31  219 -2.177e+08 -2.168e+08  0.41%   593 2169s
 11748  3816 -2.173e+08   41  442 -2.177e+08 -2.168e+08  0.41%   589 2207s
 12246  3950     cutoff   61      -2.177e+08 -2.168e+08  0.41%   586 2243s
 12737  4208 -2.175e+08   40  172 -2.177e+08 -2.168e+08  0.41%   577 2278s
 13348  4367 infeasible   30      -2.177e+08 -2.168e+08  0.41%   574 2311s
 13995  4609 -2.175e+08   49   83 -2.177e+08 -2.169e+08  0.38%   569 2350s
 14787  4639 -2.175e+08   21  114 -2.177e+08 -2.169e+08  0.38%   559 2430s
 14934  4938 -2.177e+08   29  137 -2.177e+08 -2.169e+08  0.38%   559 2466s
 15829  5240 -2.173e+08   31  313 -2.177e+08 -2.169e+08  0.36%   550 2509s
 16709  5285 -2.175e+08   37   79 -2.177e+08 -2.169e+08  0.36%   544 2534s
 16771  5551 -2.176e+08   41   70 -2.177e+08 -2.169e+08  0.36%   543 2571s
 17590  5897 -2.176e+08   34  302 -2.177e+08 -2.169e+08  0.35%   538 2615s
 18397  6120 -2.174e+08   32  304 -2.177e+08 -2.169e+08  0.34%   538 2659s
 19184  6369 -2.174e+08   26  414 -2.177e+08 -2.170e+08  0.34%   536 2724s
 20207  6834 -2.174e+08   25  266 -2.177e+08 -2.170e+08  0.33%   532 2768s
 21237  7239 -2.174e+08   31  236 -2.177e+08 -2.170e+08  0.32%   528 2817s
 22373  7637 -2.172e+08   34  169 -2.177e+08 -2.170e+08  0.32%   523 2869s
 23383  8016 infeasible   38      -2.177e+08 -2.170e+08  0.31%   521 2946s
 24521  8183 -2.177e+08   31  166 -2.177e+08 -2.170e+08  0.31%   527 3000s
 25583  8632 -2.175e+08   24  252 -2.177e+08 -2.170e+08  0.30%   516 3048s
 26652  8984 -2.173e+08   37  300 -2.177e+08 -2.170e+08  0.30%   512 3099s
 27555  9259 -2.174e+08   42  534 -2.177e+08 -2.170e+08  0.29%   512 3145s
 28632  9690 -2.174e+08   27  209 -2.177e+08 -2.171e+08  0.29%   512 3206s
 30254 10183 -2.175e+08   42  333 -2.177e+08 -2.171e+08  0.28%   506 3263s
 31996 10452 -2.176e+08   30  231 -2.177e+08 -2.171e+08  0.27%   501 3324s
 33422 10909 -2.176e+08   34  172 -2.177e+08 -2.171e+08  0.27%   499 3388s
 35161 11376 infeasible   63      -2.177e+08 -2.171e+08  0.26%   493 3446s
 36912 11907 infeasible   61      -2.177e+08 -2.171e+08  0.25%   489 3515s
 38626 12318 -2.175e+08   28  215 -2.177e+08 -2.171e+08  0.25%   486 3580s
 40360 12456 -2.177e+08   33  278 -2.177e+08 -2.172e+08  0.24%   484 3600s

Cutting planes:
  Cover: 4
  Implied bound: 32
  Projected implied bound: 420
  MIR: 949
  Flow cover: 311
  RLT: 33
  Relax-and-lift: 154

Explored 40979 nodes (20075877 simplex iterations) in 3600.58 seconds (3521.91 work units)
Thread count was 20 (of 20 available processors)

Solution count 10: -2.17685e+08 -2.17685e+08 -2.17685e+08 ... -2.17706e+08

Time limit reached
Best objective -2.176854400316e+08, best bound -2.171680437049e+08, gap 0.2377%
